asp/input/in_50_25_9_1.lp
#const n = 50.
#const k = 25.
#const h = 9.
tile(1,20,12).
tile(2,10,1).
tile(3,7,12).
tile(4,8,3).
tile(5,21,8).
tile(6,18,23).
tile(7,21,22).
tile(8,18,6).
tile(9,11,17).
tile(10,15,25).
tile(11,7,1).
tile(12,5,9).
tile(13,7,9).
tile(14,19,14).
tile(15,6,10).
tile(16,18,1).
tile(17,18,8).
tile(18,4,4).
tile(19,2,20).
tile(20,5,7).
tile(21,15,2).
tile(22,14,9).
tile(23,8,2).
tile(24,9,12).
tile(25,20,24).
tile(26,12,14).
tile(27,4,14).
tile(28,2,16).
tile(29,5,22).
tile(30,1,11).
tile(31,11,6).
tile(32,1,14).
tile(33,9,8).
tile(34,24,19).
tile(35,8,2).
tile(36,2,22).
tile(37,10,15).
tile(38,17,21).
tile(39,20,25).
tile(40,19,17).
tile(41,11,13).
tile(42,22,9).
tile(43,4,25).
tile(44,22,5).
tile(45,6,8).
tile(46,12,9).
tile(47,23,2).
tile(48,9,9).
tile(49,17,11).
tile(50,21,14).
