instances/in_50_25_9_1.dzn
n = 50;
k = 25;
h = 9;
tiles = array2d(1..n, 1..2,
[ 20,12
, 10,1
, 7,12
, 8,3
, 21,8
, 18,23
, 21,22
, 18,6
, 11,17
, 15,25
, 7,1
, 5,9
, 7,9
, 19,14
, 6,10
, 18,1
, 18,8
, 4,4
, 2,20
, 5,7
, 15,2
, 14,9
, 8,2
, 9,12
, 20,24
, 12,14
, 4,14
, 2,16
, 5,22
, 1,11
, 11,6
, 1,14
, 9,8
, 24,19
, 8,2
, 2,22
, 10,15
, 17,21
, 20,25
, 19,17
, 11,13
, 22,9
, 4,25
, 22,5
, 6,8
, 12,9
, 23,2
, 9,9
, 17,11
, 21,14
]);